(set-logic QF_S)
(declare-fun T_12 () Bool)
(declare-fun T_13 () Bool)
(declare-fun T_SELECT_4 () Bool)
(declare-fun T_SELECT_5 () Bool)
(declare-fun T_c () Bool)
(declare-fun T_e () Bool)
(declare-fun T_f () Bool)
(declare-fun I0_23 () Int)
(declare-fun I1_23 () Int)
(declare-fun I2_23 () Int)
(declare-fun PCTEMP_LHS_4 () Int)
(declare-fun PCTEMP_LHS_5 () Int)
(declare-fun T_10 () Int)
(declare-fun NEW_DGNode_510 () String)
(declare-fun NEW_DGNode_514 () String)
(declare-fun NEW_DGNode_518 () String)
(declare-fun NEW_DGNode_522 () String)
(declare-fun NEW_DGNode_526 () String)
(declare-fun NEW_DGNode_530 () String)
(declare-fun PCTEMP_LHS_6 () String)
(declare-fun T_af () String)
(declare-fun T_b0 () String)
(declare-fun T_b1 () String)
(declare-fun T_b2 () String)
(declare-fun T_b3 () String)
(declare-fun T_b4 () String)
(assert (= T_b4 (str.++ T_b3 NEW_DGNode_530)))
(assert (= T_b3 (str.++ T_b2 NEW_DGNode_526)))
(assert (= T_b2 (str.++ T_b1 NEW_DGNode_522)))
(assert (= T_b1 (str.++ T_b0 NEW_DGNode_518)))
(assert (= T_b0 (str.++ T_af NEW_DGNode_514)))
(assert (= T_af (str.++ NEW_DGNode_510 PCTEMP_LHS_6)))
(assert (= NEW_DGNode_510 "__utmb="))
(assert (= PCTEMP_LHS_6 "-"))
(assert (= NEW_DGNode_514 ";"))
(assert (= NEW_DGNode_518 "/"))
(assert (= NEW_DGNode_522 ";"))
(assert (= NEW_DGNode_526 ""))
(assert (= NEW_DGNode_530 ""))
(assert (= T_SELECT_5 (not (= PCTEMP_LHS_5 (- 1)))))
(assert T_f)
(assert (= T_f (not T_e)))
(assert (= T_e (< PCTEMP_LHS_5 0)))
(assert (= T_SELECT_4 (not (= PCTEMP_LHS_4 (- 1)))))
(assert T_c)
(assert (= T_c (< (- 1) PCTEMP_LHS_4)))
(assert (= T_10 (+ PCTEMP_LHS_4 7)))
(assert (>= T_10 0))
(assert (>= PCTEMP_LHS_5 T_10))
(assert (= I2_23 I1_23))
(assert (<= PCTEMP_LHS_5 I1_23))
(assert (= I0_23 (- PCTEMP_LHS_5 T_10)))
(assert (= I0_23 (str.len PCTEMP_LHS_6))) ; len 0
(assert T_12)
(assert T_13)
(assert (= T_13 (not T_12)))
(check-sat)
